c NeuroCodeBench 2.0 CNF formula with verdict Unsat
p cnf 55 55
-1 47 20 0
1 19 -18 -4 -44 -43 49 0
-1 47 -20 -49 -24 0
1 -19 -10 27 51 0
-1 47 -20 -49 24 23 -42 54 0
-1 47 -20 -49 24 -23 0
1 19 -18 4 28 -55 51 0
1 -19 -10 -27 -37 33 23 -54 -13 0
1 -19 -10 -27 37 0
1 -19 10 48 52 -5 50 45 0
1 19 -18 -4 -44 -43 -49 0
1 -19 10 48 52 -5 -50 0
-1 -47 -40 52 44 26 43 0
-1 -47 40 5 0
1 -19 -10 27 -51 -44 0
1 -19 10 48 -52 -45 0
-1 -47 -40 52 -44 0
-1 -47 40 -5 12 -44 0
1 19 -18 -4 44 -34 -11 0
-1 -47 40 -5 -12 -26 0
-1 -47 40 -5 -12 26 0
1 -19 -10 -27 -37 33 23 54 0
1 19 18 10 0
-1 47 -20 49 28 -10 0
1 -19 -10 27 -51 44 -6 0
-1 47 -20 -49 24 23 -42 -54 0
1 19 -18 -4 44 34 26 0
-1 -47 -40 52 44 26 -43 0
1 -19 -10 27 -51 44 6 0
-1 -47 40 -5 12 44 0
1 19 -18 -4 44 34 -26 0
1 19 -18 4 28 -55 -51 0
-1 -47 -40 -52 -50 0
1 -19 -10 -27 -37 33 23 -54 13 0
1 -19 -10 -27 -37 -33 0
1 -19 -10 -27 -37 33 -23 0
1 -19 10 -48 5 -50 0
-1 47 -20 -49 24 23 42 0
1 -19 10 48 52 -5 50 -45 0
-1 47 -20 49 28 10 -44 0
-1 47 -20 49 -28 0
1 -19 10 48 52 5 0
1 19 18 -10 -38 0
1 -19 10 -48 -5 0
-1 -47 -40 -52 50 0
1 19 -18 4 28 55 0
1 19 -18 -4 44 -34 11 49 0
1 19 18 -10 38 0
1 -19 10 48 -52 45 0
-1 47 -20 49 28 10 44 0
1 19 -18 -4 -44 43 0
1 -19 10 -48 5 50 0
1 19 -18 4 -28 0
-1 -47 -40 52 44 -26 0
1 19 -18 -4 44 -34 11 -49 0
